(assert (forall ((pkt_0_4_6_0  Int  )(state_group_0_state_0_5_7_0  Int  )(state_group_0_state_1_6_8_0  Int  )) (let ((_n0 state_group_0_state_0_5_7_0 ))
(let ((_n1 2 ))
(let ((_n2 (ite (=  _n0  1)  _n1   _n0  ) ))
(let ((_n3 state_group_0_state_1_6_8_0 ))
(let ((_n4 false ))
(let ((_n5 (ite (=  _n0  1)  (ite  _n4  1 0)   _n3  ) ))
(let ((_n6 3 ))
(let ((_n7 (ite (=  _n5  999)  _n6   _n2  ) ))
(let ((_n8 (ite (=  _n2  2)  _n7   _n2  ) ))
(let ((_n9 (<   _n0   _n1 ) ))
(let ((_n10 (ite  _n9   (ite  _n4  1 0)   _n0  ) ))
(let ((_n11 (=   _n10   _n1 ) ))
(let ((_n12 (ite  _n9   _n4   _n11  ) ))
(let ((_n13 (not  _n12 ) ))
(let ((_n14 (or   _n13   _n9 ) ))
(let ((_n15 999 ))
(let ((_n16 pkt_0_4_6_0 ))
(let ((_n17 (ite  _n14   (ite  _n4  1 0)   _n16  ) ))
(let ((_n18 (ite  _n14   (ite  _n4  1 0)   _n3  ) ))
(let ((_n19 (+   _n18   _n17 ) ))
(let ((_n20 (=   _n19   _n15 ) ))
(let ((_n21 (ite  _n14   _n4   _n20  ) ))
(let ((_n22 (not  _n21 ) ))
(let ((_n23 (or   _n22   _n14 ) ))
(let ((_n24 (ite  _n23   (ite  _n4  1 0)   _n16  ) ))
(let ((_n25 (ite  _n23   (ite  _n4  1 0)   _n6  ) ))
(let ((_n26 (+   _n25   _n24 ) ))
(let ((_n27 (ite  _n23   (ite  _n4  1 0)   _n26  ) ))
(let ((_n28 (ite  _n23   _n0   (ite  _n4  1 0)  ) ))
(let ((_n29 (+   _n28   _n27 ) ))
(let ((_n30 (ite (=  (ite  _n21  1 0)  1)  _n29   _n0  ) ))
(let ((_n31 (ite (=  (ite  _n12  1 0)  1)  _n30   _n0  ) ))
(let ((_n32 true ))
(let ((_n33 (ite  _n9   _n0   (ite  _n4  1 0)  ) ))
(let ((_n34 (=   _n33   (ite  _n32  1 0) ) ))
(let ((_n35 (not  _n34 ) ))
(let ((_n36 (and   _n9   _n35 ) ))
(let ((_n37 (not  _n9 ) ))
(let ((_n38 (or   _n36   _n37 ) ))
(let ((_n39 (not  _n38 ) ))
(let ((_n40 (-  (ite  _n39  1 0) )))
(let ((_n41 (ite  _n38   (ite  _n4  1 0)   _n1  ) ))
(let ((_n42 (+   _n41   _n40 ) ))
(let ((_n43 (ite  _n38   (ite  _n4  1 0)   _n42  ) ))
(let ((_n44 (+   _n0   _n43 ) ))
(let ((_n45 (ite (=  (ite  _n36  1 0)  1)  _n0   _n44  ) ))
(let ((_n46 (ite (=  (ite  _n9  1 0)  1)  _n45   _n31  ) ))
(let ((_n47 (=   _n46   _n8 ) ))
(let ((_n49 (+   _n5   (ite  _n32  1 0) ) ))
(let ((_n50 (ite (=  _n2  2)  _n49   _n5  ) ))
(let ((_n51 (or   _n21   _n14 ) ))
(let ((_n52 (not  _n51 ) ))
(let ((_n53 (+   _n3   (ite  _n52  1 0) ) ))
(let ((_n54 1000 ))
(let ((_n55 (ite  _n23   (ite  _n4  1 0)   _n54  ) ))
(let ((_n56 (+   _n55   _n24 ) ))
(let ((_n57 (ite  _n23   (ite  _n4  1 0)   _n56  ) ))
(let ((_n58 (ite  _n23   _n3   (ite  _n4  1 0)  ) ))
(let ((_n59 (+   _n58   _n57 ) ))
(let ((_n60 (ite (=  (ite  _n21  1 0)  1)  _n59   _n53  ) ))
(let ((_n61 (ite (=  (ite  _n12  1 0)  1)  _n60   _n3  ) ))
(let ((_n62 (ite  _n38   _n3   (ite  _n4  1 0)  ) ))
(let ((_n63 (+   _n62   _n43 ) ))
(let ((_n64 (ite (=  (ite  _n36  1 0)  1)  _n3   _n63  ) ))
(let ((_n65 (ite (=  (ite  _n9  1 0)  1)  _n64   _n61  ) ))
(let ((_n66 (=   _n65   _n50 ) ))
(let ((_n68 (ite (=  _n16  0)  _n16   (ite  _n4  1 0)  ) ))
(let ((_n69 (ite (=  _n16  0)  _n68   _n16  ) ))
(let ((_n70 (=   _n69   _n16 ) ))
(implies  (and (and (>= state_group_0_state_1_6_8_0 0) (< state_group_0_state_1_6_8_0 1024 ))  (and (and (>= state_group_0_state_0_5_7_0 0) (< state_group_0_state_0_5_7_0 1024 ))  (and (>= pkt_0_4_6_0 0) (< pkt_0_4_6_0 1024 )) ) )   (and  _n47  _n66  _n70 )  ))))))))))))))))))))))))))))))))))))))))))))))))))))))))))))))))))))))))
(check-sat)
(get-model)
(exit)